% demand
num_movements = 20;
loading_factor = [2000, 1050, 950, 900, 1000, 950, 950, 1450, 1150, 1000, 1200, 1200, 950, 1950, 1400, 1650, 1600, 1100, 1650, 900];
pickup_time = [0, 0, 0, 0, 0, 0, 1, 1, 3, 3, 3, 3, 4, 4, 5, 5, 5, 6, 6, 7];
delivery_time = [1, 2, 1, 2, 1, 4, 2, 4, 5, 7, 4, 5, 5, 5, 6, 8, 8, 7, 7, 8];

% transporter definition
total_capacity = 7000;
num_decks = 3;
capacity = [3000, 1000, 3000];

% ways out of decks
num_ways_out = 1;
paths_out = array3d(decks, ways_out, decks, [
% ways out of deck d1
2, 3, 0, 

% ways out of deck d2
3, 0, 0, 

% ways out of deck d3
0, 0, 0,	

]);

